O  H  O  H  O  H  O  H  O  H  O  H  O  H  O  H 
 1.0000000000000000
     9.0399999999999991    0.0000000000000000    0.0000000000000000
    -4.5199999999999996    7.8288696502113240    0.0000000000000000
     0.0000000000000000    0.0000000000000000   14.6999999999999993
 O   H   O   H   O   H   O   H   O   H   O   H   O   H   O   H  
   4   8   4   8   4   8   4   8   4   8   4   8   4   8   4   8
Cartesian
 -0.0000000000000003  2.6096232167371078  0.4557000000000000
  2.2599999999999989  1.3048116083685539  4.1307000000000000
  2.2599999999999989  1.3048116083685539  6.8943000000000003
 -0.0000000000000003  2.6096232167371078  3.2193000000000001
  0.1807999999999999  2.5052382880676238  0.1470000000000000
  2.0791999999999997  1.4091965370380382  0.7350000000000000
  3.5707999999999998  0.5480208755147927  3.5279999999999996
 -1.3107999999999997  3.3664139495908691  4.1160000000000014
  3.5707999999999998  0.5480208755147927  6.6150000000000011
 -1.3107999999999997  3.3664139495908691  7.2029999999999994
  0.1807999999999999  2.5052382880676238  3.2340000000000004
  2.0791999999999997  1.4091965370380382  3.8220000000000001
 -0.0000000000000003  2.6096232167371078  7.8056999999999999
  2.2599999999999989  1.3048116083685539 11.4807000000000006
  2.2599999999999989  1.3048116083685539 14.2442999999999991
 -0.0000000000000003  2.6096232167371078 10.5693000000000001
  0.1807999999999999  2.5052382880676238  7.4969999999999999
  2.0791999999999997  1.4091965370380382  8.0849999999999991
  3.5707999999999998  0.5480208755147927 10.8780000000000001
 -1.3107999999999997  3.3664139495908691 11.4660000000000011
  3.5707999999999998  0.5480208755147927 13.9649999999999999
 -1.3107999999999997  3.3664139495908691 14.5529999999999990
  0.1807999999999999  2.5052382880676238 10.5840000000000014
  2.0791999999999997  1.4091965370380382 11.1720000000000006
 -2.2599999999999998  6.5240580418427694  0.4557000000000000
 -0.0000000000000006  5.2192464334742157  4.1307000000000000
 -0.0000000000000006  5.2192464334742157  6.8943000000000003
 -2.2599999999999998  6.5240580418427694  3.2193000000000001
 -2.0791999999999997  6.4196731131732854  0.1470000000000000
 -0.1808000000000001  5.3236313621437006  0.7350000000000000
  1.3108000000000000  4.4624557006204544  3.5279999999999996
 -3.5707999999999993  7.2808487746965316  4.1160000000000014
  1.3108000000000000  4.4624557006204544  6.6150000000000011
 -3.5707999999999993  7.2808487746965316  7.2029999999999994
 -2.0791999999999997  6.4196731131732854  3.2340000000000004
 -0.1808000000000001  5.3236313621437006  3.8220000000000001
 -2.2599999999999998  6.5240580418427694  7.8056999999999999
 -0.0000000000000006  5.2192464334742157 11.4807000000000006
 -0.0000000000000006  5.2192464334742157 14.2442999999999991
 -2.2599999999999998  6.5240580418427694 10.5693000000000001
 -2.0791999999999997  6.4196731131732854  7.4969999999999999
 -0.1808000000000001  5.3236313621437006  8.0849999999999991
  1.3108000000000000  4.4624557006204544 10.8780000000000001
 -3.5707999999999993  7.2808487746965316 11.4660000000000011
  1.3108000000000000  4.4624557006204544 13.9649999999999999
 -3.5707999999999993  7.2808487746965316 14.5529999999999990
 -2.0791999999999997  6.4196731131732854 10.5840000000000014
 -0.1808000000000001  5.3236313621437006 11.1720000000000006
  4.5199999999999978  2.6096232167371078  0.4557000000000000
  6.7799999999999994  1.3048116083685539  4.1307000000000000
  6.7799999999999994  1.3048116083685539  6.8943000000000003
  4.5199999999999978  2.6096232167371078  3.2193000000000001
  4.7007999999999992  2.5052382880676238  0.1470000000000000
  6.5991999999999997  1.4091965370380382  0.7350000000000000
  8.0907999999999998  0.5480208755147927  3.5279999999999996
  3.2092000000000001  3.3664139495908691  4.1160000000000014
  8.0907999999999998  0.5480208755147927  6.6150000000000011
  3.2092000000000001  3.3664139495908691  7.2029999999999994
  4.7007999999999992  2.5052382880676238  3.2340000000000004
  6.5991999999999997  1.4091965370380382  3.8220000000000001
  4.5199999999999978  2.6096232167371078  7.8056999999999999
  6.7799999999999994  1.3048116083685539 11.4807000000000006
  6.7799999999999994  1.3048116083685539 14.2442999999999991
  4.5199999999999978  2.6096232167371078 10.5693000000000001
  4.7007999999999992  2.5052382880676238  7.4969999999999999
  6.5991999999999997  1.4091965370380382  8.0849999999999991
  8.0907999999999998  0.5480208755147927 10.8780000000000001
  3.2092000000000001  3.3664139495908691 11.4660000000000011
  8.0907999999999998  0.5480208755147927 13.9649999999999999
  3.2092000000000001  3.3664139495908691 14.5529999999999990
  4.7007999999999992  2.5052382880676238 10.5840000000000014
  6.5991999999999997  1.4091965370380382 11.1720000000000006
  2.2599999999999985  6.5240580418427694  0.4557000000000000
  4.5199999999999996  5.2192464334742157  4.1307000000000000
  4.5199999999999996  5.2192464334742157  6.8943000000000003
  2.2599999999999985  6.5240580418427694  3.2193000000000001
  2.4408000000000003  6.4196731131732854  0.1470000000000000
  4.3391999999999999  5.3236313621437006  0.7350000000000000
  5.8308000000000000  4.4624557006204544  3.5279999999999996
  0.9492000000000003  7.2808487746965316  4.1160000000000014
  5.8308000000000000  4.4624557006204544  6.6150000000000011
  0.9492000000000003  7.2808487746965316  7.2029999999999994
  2.4408000000000003  6.4196731131732854  3.2340000000000004
  4.3391999999999999  5.3236313621437006  3.8220000000000001
  2.2599999999999985  6.5240580418427694  7.8056999999999999
  4.5199999999999996  5.2192464334742157 11.4807000000000006
  4.5199999999999996  5.2192464334742157 14.2442999999999991
  2.2599999999999985  6.5240580418427694 10.5693000000000001
  2.4408000000000003  6.4196731131732854  7.4969999999999999
  4.3391999999999999  5.3236313621437006  8.0849999999999991
  5.8308000000000000  4.4624557006204544 10.8780000000000001
  0.9492000000000003  7.2808487746965316 11.4660000000000011
  5.8308000000000000  4.4624557006204544 13.9649999999999999
  0.9492000000000003  7.2808487746965316 14.5529999999999990
  2.4408000000000003  6.4196731131732854 10.5840000000000014
  4.3391999999999999  5.3236313621437006 11.1720000000000006
